\ SCIP STATISTICS
\   Problem name     : f2gap40400
\   Variables        : 400 (400 binary, 0 integer, 0 implicit integer, 0 continuous)
\   Constraints      : 40
Minimize
 Obj: +88 x398 +44 x0 +60 x1 +87 x2 +21 x3 +71 x4 +31 x5 +24 x6 +62 x7 +74 x8 +17 x9 +39 x10 -9 x11 +74 x12
      +44 x13 +46 x14 +44 x15 +60 x16 +77 x17 +45 x18 +23 x19 +76 x20 +67 x21 +19 x22 +20 x23 +62 x24
      +71 x25 +48 x26 +61 x27 +37 x28 +37 x29 +55 x30 +80 x31 +57 x32 +70 x33 +63 x34 +85 x35 +71 x36
      +56 x37 +63 x38 +78 x39 +76 x40 +86 x41 +4 x42 +71 x43 +35 x44 +65 x45 +79 x46 +24 x47 +79 x48 -2 x49
      +61 x50 +45 x51 +83 x52 +91 x53 +49 x54 +50 x55 +66 x56 +74 x57 +78 x58 +56 x59 -4 x61 +83 x62 +51 x63
      +52 x64 +44 x65 +3 x66 +62 x67 +86 x68 +62 x69 +70 x70 +79 x71 +77 x72 +55 x73 +45 x74 +82 x75 -10 x76
      +57 x77 +2 x78 +5 x79 +61 x80 +91 x81 +94 x82 +70 x83 +9 x84 +68 x85 +90 x86 +92 x87 +72 x88 +74 x89
      +57 x90 +67 x91 +81 x92 +79 x94 +50 x95 +57 x96 +63 x97 +58 x98 +89 x99 +36 x100 +75 x101 +32 x102
      +77 x103 +30 x104 +47 x105 +47 x106 +61 x107 +88 x108 +62 x109 +33 x110 +35 x111 +4 x112 +68 x113
      +73 x114 +40 x115 +67 x116 +59 x117 +47 x118 +41 x119 +21 x120 +57 x121 -10 x122 +51 x123 +79 x124
      +87 x125 +23 x126 +3 x127 +52 x128 +70 x129 +51 x130 +56 x131 +19 x132 +43 x133 +32 x134 +17 x135
      +37 x136 +26 x137 +31 x138 +77 x139 +33 x140 +84 x141 +73 x142 +77 x143 +6 x144 +70 x145 +60 x146
      +4 x147 +89 x148 +10 x149 +80 x150 +35 x151 +9 x152 +50 x153 +74 x154 +40 x155 +85 x156 -3 x157
      +72 x158 +46 x159 +11 x160 +76 x161 +67 x162 +57 x163 +65 x164 +59 x165 +73 x166 +91 x167 +87 x168
      +86 x169 +25 x170 +48 x171 +21 x172 +30 x173 +63 x174 +50 x175 +2 x176 +87 x177 +66 x178 +81 x179
      +74 x180 +10 x181 +9 x182 +43 x183 +46 x184 +83 x185 +63 x186 +53 x187 +41 x188 +87 x189 +78 x190
      +27 x191 +80 x192 +46 x193 +45 x194 -1 x195 +65 x196 +97 x197 +49 x198 +23 x199 +68 x200 +77 x201
      +54 x202 +61 x203 +85 x204 +61 x205 -3 x206 +73 x207 +54 x208 +27 x209 +38 x210 +34 x211 +22 x212
      +64 x213 +15 x214 +78 x215 +83 x217 +58 x218 +80 x219 +43 x220 +63 x221 +82 x222 +62 x223 +46 x224
      +64 x225 +41 x226 +61 x227 +10 x228 +93 x229 +45 x230 +66 x231 +49 x232 +41 x233 +7 x234 +26 x235
      +33 x236 +86 x237 +84 x238 +90 x239 +59 x240 +19 x241 +19 x242 +33 x243 +54 x244 +85 x245 -2 x246
      -11 x247 +43 x248 +62 x249 +61 x250 +90 x251 +78 x252 +11 x253 +31 x254 +66 x255 +56 x256 +16 x257
      +76 x258 +35 x259 +52 x260 +52 x261 +82 x262 +86 x263 +22 x264 +87 x265 +71 x266 +31 x267 +39 x268
      +77 x269 +18 x270 +77 x271 +57 x272 +84 x273 +37 x274 +29 x275 +80 x276 +55 x277 +86 x278 +36 x279
      +91 x280 +48 x281 +78 x282 +84 x283 +14 x284 -2 x285 +62 x286 +67 x287 +58 x288 +55 x289 +64 x290
      +63 x291 +41 x292 +64 x293 +37 x294 +99 x295 +9 x296 +26 x297 +18 x298 +39 x299 +45 x300 +80 x301
      +98 x302 +69 x303 +10 x304 +73 x305 +12 x306 -7 x307 +29 x308 -5 x309 +48 x310 +78 x311 +74 x312
      +76 x313 +72 x314 -9 x315 +74 x316 +43 x317 +49 x318 +20 x319 +54 x320 +91 x321 +99 x322 +80 x323
      +24 x324 +47 x325 +58 x326 +48 x327 +64 x328 +80 x329 +82 x330 +15 x331 +1 x332 +41 x333 +26 x334
      +65 x335 +27 x336 +30 x337 +36 x338 +63 x339 +32 x340 +78 x341 +33 x342 +64 x343 +24 x344 +28 x345
      +65 x346 +31 x347 +58 x348 +25 x349 +70 x350 +66 x351 +56 x352 +82 x353 +45 x354 -4 x355 +88 x356
      +64 x357 +31 x358 +81 x359 +78 x360 +20 x361 +56 x362 +93 x363 +51 x364 +18 x365 +49 x366 +87 x367
      +1 x368 +1 x369 +28 x370 +71 x371 +72 x372 +77 x373 +68 x374 +20 x375 +41 x376 +76 x377 +14 x378
      +54 x379 +54 x380 +53 x381 +86 x382 -2 x383 +59 x384 +74 x385 +74 x386 +71 x387 +64 x388 +35 x389
      +51 x390 +38 x391 +5 x392 +82 x393 +43 x394 +25 x395 +76 x396 +83 x397 +82 x399
Subject to
 c1: -96 x2 +54 x10 -91 x15 -91 x21 -100 x47 -96 x64 -98 x76 -100 x142 -100 x170 -97 x178 +12 x179 -96 x187
  +38 x194 +58 x211 -91 x220 -91 x228 -96 x237 -95 x250 +69 x257 +13 x263 -98 x278 +1 x280 -96 x289 -99 x290
  +18 x312 -82 x343 +65 x345 -98 x383 +77 x392 <= -1406
 c2: +21 x21 -87 x26 +42 x30 +70 x47 -90 x50 -100 x51 -98 x118 -100 x139 +34 x146 -96 x182 +71 x191 -97 x194
  -92 x211 -89 x224 +7 x251 -97 x263 +61 x279 +13 x329 -99 x338 -98 x354 +64 x370 +31 x380 <= -727
 c3: +28 x25 -97 x27 +57 x29 +23 x33 -97 x40 -98 x54 -98 x57 -96 x58 +1 x62 +48 x74 -93 x75 +9 x86 +75 x120
  +19 x139 -99 x148 -91 x149 -96 x183 +33 x260 -98 x286 +19 x287 +59 x294 +6 x323 -92 x334 <= -674
 c4: +64 x6 -98 x22 -94 x29 +91 x61 -100 x80 -98 x88 +49 x106 +47 x123 -95 x159 -96 x176 -100 x219 -99 x231
  +81 x234 +57 x259 +2 x302 +26 x314 -99 x321 -99 x351 -98 x369 <= -658
 c5: -92 x1 -98 x18 +35 x32 -99 x46 -100 x81 +13 x125 -93 x143 -96 x153 -100 x156 -98 x157 +2 x169 +50 x188
  -97 x198 -99 x203 -95 x217 +76 x228 -88 x247 -95 x276 -97 x280 -90 x307 +83 x331 +17 x343 +71 x344 +32 x346
  -87 x361 +23 x371 -100 x399 <= -1216
 c6: -99 x23 -100 x31 -93 x34 -99 x38 -97 x78 -98 x79 +59 x102 +84 x112 +46 x133 +22 x207 +23 x231 +64 x235
  +10 x282 +92 x307 +1 x322 -92 x342 -100 x357 -93 x396 <= -470
 c7: +2 x2 +15 x20 +32 x24 +17 x46 +27 x59 +38 x65 +17 x101 -100 x121 +53 x155 -100 x160 +18 x200 -99 x222
  -98 x225 -99 x240 -95 x248 +33 x256 +9 x262 +19 x271 +51 x300 +38 x320 +26 x348 -96 x350 -94 x378 -91 x392
  -100 x393 <= -577
 c8: -97 x41 +2 x53 -99 x89 -97 x93 +99 x122 +33 x131 +36 x163 +39 x187 +43 x193 -92 x245 +41 x281 +44 x327
  +53 x358 <= +6
 c9: +22 x4 -96 x24 +32 x55 +27 x91 +58 x100 -90 x111 -96 x146 +80 x160 -92 x169 -97 x174 +35 x205 +57 x210
  +36 x221 +17 x252 -94 x283 -100 x299 +31 x328 -97 x368 -96 x391 <= -461
 c10: -93 x35 +10 x43 +36 x64 +14 x87 -91 x124 -93 x128 +82 x149 -98 x181 +68 x199 +41 x202 -97 x233 -92 x235
  -91 x256 -90 x285 -93 x301 -95 x306 +34 x339 +28 x351 -96 x353 +96 x355 -96 x395 <= -716
 c11: -98 x7 +9 x52 +44 x54 -96 x96 +43 x105 -92 x131 +29 x166 +62 x170 +57 x173 +28 x178 +33 x208 -98 x252
  -91 x269 +1 x295 +49 x299 -96 x302 +14 x313 -93 x323 -95 x328 +37 x381 <= -349
 c12: +81 x9 -81 x28 -94 x33 +18 x40 -98 x68 -89 x70 +43 x77 -88 x113 +19 x129 +75 x132 +19 x150 -93 x154
  -93 x179 +42 x198 +45 x224 -99 x273 -100 x295 -97 x333 +56 x342 -94 x348 -97 x366 +9 x367 <= -715
 c13: +66 x3 -97 x8 +74 x19 +64 x44 +20 x72 -98 x82 -95 x135 +20 x161 +4 x167 -93 x201 +69 x212 -97 x216
  +48 x232 +35 x240 -93 x257 -100 x260 -89 x266 -99 x341 +10 x377 -98 x379 <= -543
 c14: +30 x69 +84 x84 -99 x98 +57 x104 -99 x119 +31 x121 +17 x185 -90 x234 +91 x247 -95 x249 -100 x270
  -100 x274 +43 x310 +13 x311 +19 x350 +21 x374 <= -177
 c15: +18 x17 -98 x19 -96 x20 +14 x36 +13 x58 +33 x67 +1 x82 +99 x157 +9 x215 -98 x229 +77 x241 -96 x264
  -97 x275 -87 x325 +92 x332 +30 x335 -97 x367 +9 x373 <= -271
 c16: +47 x0 +43 x18 +16 x31 -98 x48 -100 x60 +56 x119 -96 x140 +45 x159 -90 x164 -97 x189 +1 x197 +31 x218
  +60 x254 +80 x306 -100 x336 +11 x356 -97 x362 -99 x365 -95 x376 +5 x382 -94 x389 <= -563
 c17: -100 x12 -90 x13 -95 x55 -97 x72 +29 x109 +35 x130 +36 x175 -97 x184 +4 x189 +7 x204 -96 x212 +11 x219
  +52 x248 +84 x253 +23 x255 +14 x266 -96 x279 +43 x318 +43 x354 +21 x372 -98 x397 -100 x398 <= -467
 c18: +59 x5 +44 x13 +50 x14 -87 x36 +17 x48 -99 x77 -100 x90 -100 x103 +10 x108 +43 x118 -93 x155 +22 x158
  -92 x186 -94 x196 -99 x199 +89 x216 -100 x243 -97 x253 -94 x259 -94 x265 -100 x294 -100 x314 -97 x316
  -96 x319 -100 x322 +17 x341 +36 x357 -94 x358 <= -1345
 c19: -93 x67 -99 x84 +13 x88 +18 x89 +43 x95 +27 x97 +29 x98 -97 x114 +12 x124 -99 x168 -97 x192 -95 x213
  +34 x223 -100 x267 +42 x277 -97 x288 -94 x297 -98 x309 +39 x352 +1 x363 +39 x364 -99 x370 +40 x390 +51 x394
  <= -673
 c20: +30 x1 -100 x56 +88 x79 +34 x96 -99 x107 +14 x113 +54 x138 -99 x150 +13 x201 -90 x218 +61 x236 +6 x237
  -97 x241 -97 x244 +76 x298 +17 x305 -92 x340 -98 x349 -99 x352 -97 x381 -98 x382 +11 x396 <= -661
 c21: -98 x11 -99 x39 -95 x52 +4 x81 -99 x99 +34 x107 +23 x162 +24 x164 -99 x232 -99 x251 -96 x261 +73 x264
  +14 x273 -95 x293 +81 x296 +23 x303 -92 x305 +61 x308 +40 x317 +39 x326 -100 x360 -94 x380 -97 x384
  <= -746
 c22: -92 x0 -100 x9 +65 x23 +35 x63 -97 x71 +34 x90 -97 x100 +62 x140 -91 x151 +6 x156 -97 x193 +95 x195
  +61 x243 -89 x272 +8 x278 +19 x385 +31 x388 <= -247
 c23: +7 x35 -92 x49 -92 x61 -95 x94 +7 x99 +57 x115 +77 x135 -95 x144 -99 x163 +69 x172 -99 x180 +28 x196
  -95 x210 -97 x214 +27 x249 +13 x276 -91 x287 -98 x291 -91 x308 -98 x331 +65 x337 -91 x372 +41 x379 -93 x386
  <= -934
 c24: +47 x15 +29 x45 -98 x65 +9 x68 +23 x114 -99 x116 -100 x134 +11 x143 +4 x148 -99 x166 -100 x185 +29 x213
  -96 x238 +76 x242 +16 x258 +34 x288 +28 x291 +8 x359 -97 x364 +34 x384 +59 x389 <= -278
 c25: +23 x8 +39 x26 -94 x63 +33 x80 -87 x85 +3 x92 +40 x128 +81 x144 -95 x207 +4 x238 +37 x261 +1 x283
  -95 x312 -94 x324 +34 x325 -97 x330 +61 x334 +12 x360 +19 x386 <= -171
 c26: +38 x37 +49 x51 +98 x76 -91 x104 -91 x109 +50 x111 -93 x126 -98 x162 +26 x174 +86 x182 -100 x242
  -92 x258 -85 x281 +36 x290 -100 x304 -99 x313 -97 x375 +9 x393 <= -554
 c27: -91 x5 -89 x6 -96 x73 -100 x87 -100 x108 +55 x110 +10 x141 +26 x145 +51 x183 -95 x195 -100 x205
  -95 x226 -100 x230 +59 x267 +57 x275 +26 x293 -99 x326 +76 x365 +24 x387 -97 x390 <= -669
 c28: +11 x71 +29 x73 -98 x117 -100 x125 -100 x158 -100 x161 +47 x171 +10 x177 -96 x202 -93 x208 -99 x227
  +48 x233 -96 x310 +100 x315 -99 x320 +5 x321 -98 x327 -99 x332 +35 x362 +41 x366 -96 x371 -98 x373 +69 x395
  <= -875
 c29: +25 x34 +23 x41 +90 x66 -98 x123 -92 x127 -98 x129 +56 x151 -93 x165 -97 x209 +87 x285 -98 x296
  +63 x324 +53 x338 <= -179
 c30: +73 x22 -96 x53 +15 x94 -93 x105 -98 x138 -99 x173 +95 x176 +79 x181 -95 x215 -98 x236 -98 x255
  +60 x274 +94 x309 -97 x346 -99 x374 <= -453
 c31: +20 x12 +34 x27 -97 x30 -100 x42 -97 x74 +9 x75 -97 x95 -93 x102 -94 x132 +44 x220 +4 x239 +6 x245
  +79 x284 +88 x304 -100 x315 +73 x336 +64 x347 -98 x387 <= -351
 c32: +33 x7 -99 x16 +94 x78 -99 x86 -100 x91 +87 x127 +36 x184 -88 x200 -92 x254 +57 x268 +8 x316 -96 x363
  +86 x383 -98 x385 <= -266
 c33: -97 x14 -99 x25 +90 x42 -100 x44 +53 x136 +22 x142 +78 x147 -97 x171 -93 x172 -93 x188 -95 x204
  -99 x206 +16 x222 +34 x250 -98 x268 -98 x277 +66 x297 -99 x303 -88 x317 -96 x337 -96 x359 +47 x391 <= -938
 c34: -99 x17 -97 x32 +31 x38 +93 x49 +19 x57 -99 x97 -99 x110 -100 x115 -96 x136 -97 x141 -98 x152 +10 x168
  +29 x186 +15 x190 +64 x209 +54 x230 -98 x284 +57 x292 -96 x300 +1 x301 +12 x353 +7 x397 <= -584
 c35: -100 x3 -100 x37 -81 x43 +29 x83 +19 x103 +67 x134 -98 x167 +26 x203 -99 x246 -99 x262 +2 x265 -95 x311
  +13 x330 -100 x347 +73 x349 +65 x361 +96 x369 <= -378
 c36: -96 x4 +34 x56 -100 x66 +16 x85 +86 x152 -95 x282 -91 x298 +72 x319 -100 x345 -98 x355 +96 x368
  -97 x377 +71 x378 -95 x388 +16 x398 <= -374
 c37: +21 x39 +22 x50 +18 x70 -86 x92 -99 x101 +29 x116 +36 x117 -91 x122 +68 x126 -100 x133 -98 x145
  -93 x147 +19 x154 -99 x191 -100 x197 +38 x227 +2 x229 -99 x239 +38 x289 -97 x318 +60 x340 -99 x356 +46 x376
  <= -663
 c38: -96 x69 -100 x83 +93 x93 -96 x106 -91 x112 +66 x137 +16 x192 +100 x206 -100 x221 -100 x223 +77 x270
  -99 x271 +32 x286 -96 x329 -98 x344 +7 x399 <= -482
 c39: -96 x120 -95 x137 +27 x153 +34 x165 -98 x177 +18 x180 +74 x214 +51 x226 +43 x244 +95 x246 +13 x269
  +27 x272 -100 x292 -97 x339 <= -94
 c40: -97 x10 +89 x11 +33 x16 +39 x28 -96 x45 -98 x59 +88 x60 -95 x62 -98 x130 -89 x175 -99 x190 +6 x217
  +32 x225 +47 x333 -97 x335 +69 x375 -94 x394 <= -459
Bounds
 0 <= x398 <= 1
 0 <= x0 <= 1
 0 <= x1 <= 1
 0 <= x2 <= 1
 0 <= x3 <= 1
 0 <= x4 <= 1
 0 <= x5 <= 1
 0 <= x6 <= 1
 0 <= x7 <= 1
 0 <= x8 <= 1
 0 <= x9 <= 1
 0 <= x10 <= 1
 0 <= x11 <= 1
 0 <= x12 <= 1
 0 <= x13 <= 1
 0 <= x14 <= 1
 0 <= x15 <= 1
 0 <= x16 <= 1
 0 <= x17 <= 1
 0 <= x18 <= 1
 0 <= x19 <= 1
 0 <= x20 <= 1
 0 <= x21 <= 1
 0 <= x22 <= 1
 0 <= x23 <= 1
 0 <= x24 <= 1
 0 <= x25 <= 1
 0 <= x26 <= 1
 0 <= x27 <= 1
 0 <= x28 <= 1
 0 <= x29 <= 1
 0 <= x30 <= 1
 0 <= x31 <= 1
 0 <= x32 <= 1
 0 <= x33 <= 1
 0 <= x34 <= 1
 0 <= x35 <= 1
 0 <= x36 <= 1
 0 <= x37 <= 1
 0 <= x38 <= 1
 0 <= x39 <= 1
 0 <= x40 <= 1
 0 <= x41 <= 1
 0 <= x42 <= 1
 0 <= x43 <= 1
 0 <= x44 <= 1
 0 <= x45 <= 1
 0 <= x46 <= 1
 0 <= x47 <= 1
 0 <= x48 <= 1
 0 <= x49 <= 1
 0 <= x50 <= 1
 0 <= x51 <= 1
 0 <= x52 <= 1
 0 <= x53 <= 1
 0 <= x54 <= 1
 0 <= x55 <= 1
 0 <= x56 <= 1
 0 <= x57 <= 1
 0 <= x58 <= 1
 0 <= x59 <= 1
 0 <= x60 <= 1
 0 <= x61 <= 1
 0 <= x62 <= 1
 0 <= x63 <= 1
 0 <= x64 <= 1
 0 <= x65 <= 1
 0 <= x66 <= 1
 0 <= x67 <= 1
 0 <= x68 <= 1
 0 <= x69 <= 1
 0 <= x70 <= 1
 0 <= x71 <= 1
 0 <= x72 <= 1
 0 <= x73 <= 1
 0 <= x74 <= 1
 0 <= x75 <= 1
 0 <= x76 <= 1
 0 <= x77 <= 1
 0 <= x78 <= 1
 0 <= x79 <= 1
 0 <= x80 <= 1
 0 <= x81 <= 1
 0 <= x82 <= 1
 0 <= x83 <= 1
 0 <= x84 <= 1
 0 <= x85 <= 1
 0 <= x86 <= 1
 0 <= x87 <= 1
 0 <= x88 <= 1
 0 <= x89 <= 1
 0 <= x90 <= 1
 0 <= x91 <= 1
 0 <= x92 <= 1
 0 <= x93 <= 1
 0 <= x94 <= 1
 0 <= x95 <= 1
 0 <= x96 <= 1
 0 <= x97 <= 1
 0 <= x98 <= 1
 0 <= x99 <= 1
 0 <= x100 <= 1
 0 <= x101 <= 1
 0 <= x102 <= 1
 0 <= x103 <= 1
 0 <= x104 <= 1
 0 <= x105 <= 1
 0 <= x106 <= 1
 0 <= x107 <= 1
 0 <= x108 <= 1
 0 <= x109 <= 1
 0 <= x110 <= 1
 0 <= x111 <= 1
 0 <= x112 <= 1
 0 <= x113 <= 1
 0 <= x114 <= 1
 0 <= x115 <= 1
 0 <= x116 <= 1
 0 <= x117 <= 1
 0 <= x118 <= 1
 0 <= x119 <= 1
 0 <= x120 <= 1
 0 <= x121 <= 1
 0 <= x122 <= 1
 0 <= x123 <= 1
 0 <= x124 <= 1
 0 <= x125 <= 1
 0 <= x126 <= 1
 0 <= x127 <= 1
 0 <= x128 <= 1
 0 <= x129 <= 1
 0 <= x130 <= 1
 0 <= x131 <= 1
 0 <= x132 <= 1
 0 <= x133 <= 1
 0 <= x134 <= 1
 0 <= x135 <= 1
 0 <= x136 <= 1
 0 <= x137 <= 1
 0 <= x138 <= 1
 0 <= x139 <= 1
 0 <= x140 <= 1
 0 <= x141 <= 1
 0 <= x142 <= 1
 0 <= x143 <= 1
 0 <= x144 <= 1
 0 <= x145 <= 1
 0 <= x146 <= 1
 0 <= x147 <= 1
 0 <= x148 <= 1
 0 <= x149 <= 1
 0 <= x150 <= 1
 0 <= x151 <= 1
 0 <= x152 <= 1
 0 <= x153 <= 1
 0 <= x154 <= 1
 0 <= x155 <= 1
 0 <= x156 <= 1
 0 <= x157 <= 1
 0 <= x158 <= 1
 0 <= x159 <= 1
 0 <= x160 <= 1
 0 <= x161 <= 1
 0 <= x162 <= 1
 0 <= x163 <= 1
 0 <= x164 <= 1
 0 <= x165 <= 1
 0 <= x166 <= 1
 0 <= x167 <= 1
 0 <= x168 <= 1
 0 <= x169 <= 1
 0 <= x170 <= 1
 0 <= x171 <= 1
 0 <= x172 <= 1
 0 <= x173 <= 1
 0 <= x174 <= 1
 0 <= x175 <= 1
 0 <= x176 <= 1
 0 <= x177 <= 1
 0 <= x178 <= 1
 0 <= x179 <= 1
 0 <= x180 <= 1
 0 <= x181 <= 1
 0 <= x182 <= 1
 0 <= x183 <= 1
 0 <= x184 <= 1
 0 <= x185 <= 1
 0 <= x186 <= 1
 0 <= x187 <= 1
 0 <= x188 <= 1
 0 <= x189 <= 1
 0 <= x190 <= 1
 0 <= x191 <= 1
 0 <= x192 <= 1
 0 <= x193 <= 1
 0 <= x194 <= 1
 0 <= x195 <= 1
 0 <= x196 <= 1
 0 <= x197 <= 1
 0 <= x198 <= 1
 0 <= x199 <= 1
 0 <= x200 <= 1
 0 <= x201 <= 1
 0 <= x202 <= 1
 0 <= x203 <= 1
 0 <= x204 <= 1
 0 <= x205 <= 1
 0 <= x206 <= 1
 0 <= x207 <= 1
 0 <= x208 <= 1
 0 <= x209 <= 1
 0 <= x210 <= 1
 0 <= x211 <= 1
 0 <= x212 <= 1
 0 <= x213 <= 1
 0 <= x214 <= 1
 0 <= x215 <= 1
 0 <= x216 <= 1
 0 <= x217 <= 1
 0 <= x218 <= 1
 0 <= x219 <= 1
 0 <= x220 <= 1
 0 <= x221 <= 1
 0 <= x222 <= 1
 0 <= x223 <= 1
 0 <= x224 <= 1
 0 <= x225 <= 1
 0 <= x226 <= 1
 0 <= x227 <= 1
 0 <= x228 <= 1
 0 <= x229 <= 1
 0 <= x230 <= 1
 0 <= x231 <= 1
 0 <= x232 <= 1
 0 <= x233 <= 1
 0 <= x234 <= 1
 0 <= x235 <= 1
 0 <= x236 <= 1
 0 <= x237 <= 1
 0 <= x238 <= 1
 0 <= x239 <= 1
 0 <= x240 <= 1
 0 <= x241 <= 1
 0 <= x242 <= 1
 0 <= x243 <= 1
 0 <= x244 <= 1
 0 <= x245 <= 1
 0 <= x246 <= 1
 0 <= x247 <= 1
 0 <= x248 <= 1
 0 <= x249 <= 1
 0 <= x250 <= 1
 0 <= x251 <= 1
 0 <= x252 <= 1
 0 <= x253 <= 1
 0 <= x254 <= 1
 0 <= x255 <= 1
 0 <= x256 <= 1
 0 <= x257 <= 1
 0 <= x258 <= 1
 0 <= x259 <= 1
 0 <= x260 <= 1
 0 <= x261 <= 1
 0 <= x262 <= 1
 0 <= x263 <= 1
 0 <= x264 <= 1
 0 <= x265 <= 1
 0 <= x266 <= 1
 0 <= x267 <= 1
 0 <= x268 <= 1
 0 <= x269 <= 1
 0 <= x270 <= 1
 0 <= x271 <= 1
 0 <= x272 <= 1
 0 <= x273 <= 1
 0 <= x274 <= 1
 0 <= x275 <= 1
 0 <= x276 <= 1
 0 <= x277 <= 1
 0 <= x278 <= 1
 0 <= x279 <= 1
 0 <= x280 <= 1
 0 <= x281 <= 1
 0 <= x282 <= 1
 0 <= x283 <= 1
 0 <= x284 <= 1
 0 <= x285 <= 1
 0 <= x286 <= 1
 0 <= x287 <= 1
 0 <= x288 <= 1
 0 <= x289 <= 1
 0 <= x290 <= 1
 0 <= x291 <= 1
 0 <= x292 <= 1
 0 <= x293 <= 1
 0 <= x294 <= 1
 0 <= x295 <= 1
 0 <= x296 <= 1
 0 <= x297 <= 1
 0 <= x298 <= 1
 0 <= x299 <= 1
 0 <= x300 <= 1
 0 <= x301 <= 1
 0 <= x302 <= 1
 0 <= x303 <= 1
 0 <= x304 <= 1
 0 <= x305 <= 1
 0 <= x306 <= 1
 0 <= x307 <= 1
 0 <= x308 <= 1
 0 <= x309 <= 1
 0 <= x310 <= 1
 0 <= x311 <= 1
 0 <= x312 <= 1
 0 <= x313 <= 1
 0 <= x314 <= 1
 0 <= x315 <= 1
 0 <= x316 <= 1
 0 <= x317 <= 1
 0 <= x318 <= 1
 0 <= x319 <= 1
 0 <= x320 <= 1
 0 <= x321 <= 1
 0 <= x322 <= 1
 0 <= x323 <= 1
 0 <= x324 <= 1
 0 <= x325 <= 1
 0 <= x326 <= 1
 0 <= x327 <= 1
 0 <= x328 <= 1
 0 <= x329 <= 1
 0 <= x330 <= 1
 0 <= x331 <= 1
 0 <= x332 <= 1
 0 <= x333 <= 1
 0 <= x334 <= 1
 0 <= x335 <= 1
 0 <= x336 <= 1
 0 <= x337 <= 1
 0 <= x338 <= 1
 0 <= x339 <= 1
 0 <= x340 <= 1
 0 <= x341 <= 1
 0 <= x342 <= 1
 0 <= x343 <= 1
 0 <= x344 <= 1
 0 <= x345 <= 1
 0 <= x346 <= 1
 0 <= x347 <= 1
 0 <= x348 <= 1
 0 <= x349 <= 1
 0 <= x350 <= 1
 0 <= x351 <= 1
 0 <= x352 <= 1
 0 <= x353 <= 1
 0 <= x354 <= 1
 0 <= x355 <= 1
 0 <= x356 <= 1
 0 <= x357 <= 1
 0 <= x358 <= 1
 0 <= x359 <= 1
 0 <= x360 <= 1
 0 <= x361 <= 1
 0 <= x362 <= 1
 0 <= x363 <= 1
 0 <= x364 <= 1
 0 <= x365 <= 1
 0 <= x366 <= 1
 0 <= x367 <= 1
 0 <= x368 <= 1
 0 <= x369 <= 1
 0 <= x370 <= 1
 0 <= x371 <= 1
 0 <= x372 <= 1
 0 <= x373 <= 1
 0 <= x374 <= 1
 0 <= x375 <= 1
 0 <= x376 <= 1
 0 <= x377 <= 1
 0 <= x378 <= 1
 0 <= x379 <= 1
 0 <= x380 <= 1
 0 <= x381 <= 1
 0 <= x382 <= 1
 0 <= x383 <= 1
 0 <= x384 <= 1
 0 <= x385 <= 1
 0 <= x386 <= 1
 0 <= x387 <= 1
 0 <= x388 <= 1
 0 <= x389 <= 1
 0 <= x390 <= 1
 0 <= x391 <= 1
 0 <= x392 <= 1
 0 <= x393 <= 1
 0 <= x394 <= 1
 0 <= x395 <= 1
 0 <= x396 <= 1
 0 <= x397 <= 1
 0 <= x399 <= 1
Binaries
 x398 x0 x1 x2 x3 x4 x5 x6 x7 x8 x9 x10 x11 x12 x13 x14 x15 x16 x17 x18 x19 x20 x21 x22 x23 x24 x25 x26
 x27 x28 x29 x30 x31 x32 x33 x34 x35 x36 x37 x38 x39 x40 x41 x42 x43 x44 x45 x46 x47 x48 x49 x50 x51 x52
 x53 x54 x55 x56 x57 x58 x59 x60 x61 x62 x63 x64 x65 x66 x67 x68 x69 x70 x71 x72 x73 x74 x75 x76 x77 x78
 x79 x80 x81 x82 x83 x84 x85 x86 x87 x88 x89 x90 x91 x92 x93 x94 x95 x96 x97 x98 x99 x100 x101 x102 x103
 x104 x105 x106 x107 x108 x109 x110 x111 x112 x113 x114 x115 x116 x117 x118 x119 x120 x121 x122 x123 x124
 x125 x126 x127 x128 x129 x130 x131 x132 x133 x134 x135 x136 x137 x138 x139 x140 x141 x142 x143 x144 x145
 x146 x147 x148 x149 x150 x151 x152 x153 x154 x155 x156 x157 x158 x159 x160 x161 x162 x163 x164 x165 x166
 x167 x168 x169 x170 x171 x172 x173 x174 x175 x176 x177 x178 x179 x180 x181 x182 x183 x184 x185 x186 x187
 x188 x189 x190 x191 x192 x193 x194 x195 x196 x197 x198 x199 x200 x201 x202 x203 x204 x205 x206 x207 x208
 x209 x210 x211 x212 x213 x214 x215 x216 x217 x218 x219 x220 x221 x222 x223 x224 x225 x226 x227 x228 x229
 x230 x231 x232 x233 x234 x235 x236 x237 x238 x239 x240 x241 x242 x243 x244 x245 x246 x247 x248 x249 x250
 x251 x252 x253 x254 x255 x256 x257 x258 x259 x260 x261 x262 x263 x264 x265 x266 x267 x268 x269 x270 x271
 x272 x273 x274 x275 x276 x277 x278 x279 x280 x281 x282 x283 x284 x285 x286 x287 x288 x289 x290 x291 x292
 x293 x294 x295 x296 x297 x298 x299 x300 x301 x302 x303 x304 x305 x306 x307 x308 x309 x310 x311 x312 x313
 x314 x315 x316 x317 x318 x319 x320 x321 x322 x323 x324 x325 x326 x327 x328 x329 x330 x331 x332 x333 x334
 x335 x336 x337 x338 x339 x340 x341 x342 x343 x344 x345 x346 x347 x348 x349 x350 x351 x352 x353 x354 x355
 x356 x357 x358 x359 x360 x361 x362 x363 x364 x365 x366 x367 x368 x369 x370 x371 x372 x373 x374 x375 x376
 x377 x378 x379 x380 x381 x382 x383 x384 x385 x386 x387 x388 x389 x390 x391 x392 x393 x394 x395 x396 x397
 x399
End
